(set-option :produce-models true)
(set-logic QF_UF)
(declare-fun p27() Bool)
(declare-fun p35() Bool)
(declare-fun p39() Bool)
(declare-fun p24() Bool)
(declare-fun p20() Bool)
(declare-fun p12() Bool)
(declare-fun p4() Bool)
(declare-fun p29() Bool)
(declare-fun p9() Bool)
(declare-fun p21() Bool)
(declare-fun p33() Bool)
(declare-fun p28() Bool)
(declare-fun p14() Bool)
(declare-fun p8() Bool)
(declare-fun p38() Bool)
(declare-fun p11() Bool)
(declare-fun p13() Bool)
(declare-fun p1() Bool)
(declare-fun p34() Bool)
(declare-fun p18() Bool)
(declare-fun p30() Bool)
(declare-fun p7() Bool)
(declare-fun p17() Bool)
(declare-fun p31() Bool)
(declare-fun p37() Bool)
(declare-fun p19() Bool)
(declare-fun p0() Bool)
(declare-fun p36() Bool)
(declare-fun p10() Bool)
(declare-fun p23() Bool)
(declare-fun p15() Bool)
(declare-fun p16() Bool)
(declare-fun p2() Bool)
(declare-fun p26() Bool)
(declare-fun p22() Bool)
(declare-fun p32() Bool)
(declare-fun p25() Bool)
(declare-fun p5() Bool)
(declare-fun p6() Bool)
(declare-fun p3() Bool)
(assert
(and (or (not p27) (not p35) (not p39) p24 (not p20)) (or (not p20) p12 p4 p24 p29) (or (not p9) p21 (not p33) p28 (not p14)) (or (not p8) p38 (not p39) p11 p13) (or (not p1) p34 p27 p13 (not p18)) (or (not p12) (not p30) (not p28) p7 (not p17)) (or (not p31) (not p37) (not p38) p19 p0) (or (not p4) p14 p12 p30 (not p29)) (or p36 (not p34) (not p28) p13 p10) (or p23 (not p4) (not p19) (not p15) p30) (or p30 p39 p16 (not p19) p23) (or p34 p2 (not p31) (not p1) p23) (or (not p27) (not p2) p20 p2 p36) (or (not p10) (not p20) p27 (not p39) p18) (or p11 (not p7) (not p4) (not p34) (not p33)) (or p39 (not p9) (not p26) (not p22) (not p32)) (or p17 (not p15) (not p12) (not p16) (not p26)) (or p24 p25 p21 (not p34) (not p23)) (or (not p27) (not p23) p27 (not p27) p7) (or p7 p5 p23 (not p20) p23) (or (not p23) p29 (not p15) (not p17) p38) (or p7 (not p11) p38 p4 (not p10)) (or p25 p38 (not p21) p34 p39) (or p37 (not p11) (not p25) (not p0) p15) (or p5 p35 (not p7) (not p30) (not p18)) (or p28 (not p28) p22 (not p18) (not p25)) (or p7 (not p11) p36 p12 (not p29)) (or (not p13) p22 p34 p17 p9) (or (not p39) p32 (not p4) p17 (not p26)) (or p36 (not p28) p37 p20 (not p16)) (or p11 p14 (not p6) p27 (not p25)) (or (not p15) p29 (not p20) p29 (not p27)) (or (not p28) p27 (not p19) p39 p6) (or (not p24) (not p17) (not p34) p1 p1) (or p24 p24 (not p3) (not p16) p11) (or (not p18) p14 p6 (not p6) p0) (or p2 p23 p10 (not p2) p36) (or p36 (not p38) p18 (not p14) (not p22)) (or p28 (not p1) (not p14) (not p17) (not p9)) (or p10 (not p14) p13 p35 p37) (or p6 p36 p34 p4 (not p10)) (or (not p13) (not p22) p26 (not p29) p14) (or (not p1) (not p32) (not p23) p17 p34) (or p23 p39 (not p12) (not p22) (not p29)) (or (not p16) p10 (not p22) p6 (not p17)) (or p29 (not p4) p18 (not p6) (not p32)) (or (not p12) (not p8) (not p14) (not p15) (not p4)) (or (not p19) p29 (not p17) (not p1) (not p1)) (or (not p11) (not p39) (not p31) p31 p30) (or p5 p18 p31 p12 p15) (or (not p3) p37 (not p3) (not p23) p34) (or (not p16) (not p6) p5 p3 (not p24)) (or p26 (not p1) (not p26) p34 p34) (or (not p31) p13 p20 (not p30) p26) (or (not p34) (not p37) (not p1) p5 p0) (or p27 (not p12) (not p15) (not p21) p6) (or p14 (not p30) p10 (not p15) (not p33)) (or p6 p17 (not p13) p0 (not p23)) (or p21 (not p19) (not p26) p17 p16) (or p8 p32 (not p5) (not p12) (not p35)) (or (not p12) (not p16) p7 p34 p31) (or (not p35) p37 p15 (not p21) (not p37)) (or (not p17) (not p24) p21 p36 p6) (or (not p11) (not p37) (not p16) p11 p27) (or p35 p5 p16 (not p33) p22) (or (not p13) p5 (not p32) (not p27) (not p4)) (or p12 p3 p3 p0 (not p6)) (or p32 (not p39) (not p11) p7 p4) (or p27 (not p28) p4 p0 p29) (or p4 (not p8) (not p15) p27 p9) (or p20 p7 p32 p5 p22) (or p39 p7 p39 (not p31) p17) (or p1 (not p19) p4 (not p17) p27) (or (not p10) p37 (not p8) (not p3) p10) (or (not p20) p19 p22 p39 p15) (or p7 (not p4) p37 p7 (not p35)) (or p23 (not p28) (not p13) p22 (not p33)) (or (not p24) p38 p8 p9 (not p3)) (or (not p10) (not p21) p29 p6 (not p6)) (or (not p14) p24 (not p1) (not p16) (not p22)) (or p33 (not p8) (not p26) (not p23) p38) (or (not p17) p17 p23 p38 (not p27)) (or p37 (not p24) (not p38) (not p14) (not p24)) (or p34 p28 (not p7) (not p38) (not p14)) (or p18 (not p26) (not p39) (not p0) (not p3)) (or p22 p15 p7 (not p28) (not p39)) (or (not p36) (not p29) p5 p5 p12) (or (not p22) (not p26) p28 (not p38) p7) (or p37 (not p21) p15 (not p27) p15) (or p22 p18 p16 p21 p25) (or p33 (not p21) (not p22) (not p35) p25) (or (not p28) (not p39) (not p20) (not p27) p3) (or p16 (not p33) (not p14) (not p29) p13) (or (not p24) p31 (not p14) (not p17) p37) (or p26 (not p4) p39 p11 (not p39)) (or (not p11) p9 (not p3) p28 (not p28)) (or (not p34) p39 (not p35) (not p19) (not p33)) (or (not p15) (not p5) (not p33) p11 p8) (or (not p33) p10 p29 (not p32) p34) (or p13 (not p35) p33 (not p27) p29) (or (not p38) p5 (not p14) p27 p2) (or p25 p24 p39 (not p33) p22) (or p27 p11 (not p2) p35 p2) (or p32 (not p18) p31 (not p21) (not p30)) (or (not p24) p36 (not p24) p16 (not p33)) (or p4 p15 p17 p13 (not p7)) (or (not p27) p7 p26 p33 (not p8)) (or (not p38) (not p11) p0 (not p10) p4) (or p11 p14 p8 p22 (not p0)) (or (not p22) p22 p7 p21 p30) (or p26 p35 p22 p26 p2) (or (not p26) p5 (not p13) p25 (not p34)) (or (not p14) (not p21) p1 (not p29) p22) (or (not p8) (not p1) p25 p11 p22) (or p39 p38 p9 p28 (not p22)) (or p17 p21 (not p33) p18 p8) (or p3 (not p30) (not p16) p2 p31) (or (not p31) p37 (not p3) p17 p18) (or (not p26) p16 p23 p37 p4) (or (not p27) (not p34) (not p30) p23 p38) (or p39 (not p11) p4 p16 (not p0)) (or p32 p36 (not p12) p36 (not p33)) (or (not p6) p13 p29 (not p15) (not p37)) (or p4 (not p22) (not p26) p33 (not p29)) (or (not p0) p38 (not p6) p20 p32) (or p30 (not p36) p29 p35 p19) (or p4 (not p7) (not p26) p14 (not p25)) (or p27 (not p22) (not p0) (not p3) p18) (or (not p23) p34 (not p24) (not p39) p10) (or (not p25) p36 (not p26) p21 p26) (or p19 p10 (not p4) p14 p21) (or p14 (not p7) (not p38) (not p30) (not p23)) (or (not p23) (not p6) (not p27) (not p22) p7) (or p21 p36 (not p6) p12 p16) (or p28 (not p17) (not p7) (not p32) (not p2)) (or p16 p5 p16 (not p9) p23) (or (not p39) p2 p32 p37 p33) (or p21 p31 (not p39) (not p33) p9) (or (not p35) p29 p31 (not p19) (not p18)) (or p39 p26 p32 p34 p5) (or (not p10) p11 (not p8) p17 (not p10)) (or (not p19) (not p8) (not p12) p29 p30) (or p0 (not p30) p29 p39 p37) (or (not p5) p16 (not p19) p6 (not p1)) (or p14 (not p18) p23 p11 (not p27)) (or (not p38) p22 (not p39) p8 (not p38)) (or p28 p10 p15 p36 p33) (or (not p11) p3 (not p0) p18 (not p0)) (or p1 (not p7) p11 (not p34) (not p0)) (or p15 (not p4) (not p12) (not p33) p1) (or (not p33) p27 p10 (not p10) p15) (or p5 (not p39) (not p14) p28 (not p23)) (or (not p38) (not p36) (not p35) (not p8) (not p25)) (or p16 (not p17) p21 (not p18) p36) (or (not p26) p13 (not p10) (not p34) p0) (or p29 (not p18) (not p19) (not p26) (not p36)) (or p15 p37 (not p2) p14 p4) (or p2 (not p25) (not p23) (not p16) (not p3)) (or p8 p21 (not p33) (not p9) p31) (or (not p0) (not p39) (not p12) (not p5) p33) (or p30 (not p37) (not p3) (not p3) p6) (or p1 p22 p38 p12 (not p14)) (or (not p14) p29 p20 p4 p26) (or (not p7) (not p23) p38 p18 p21) (or (not p36) (not p35) (not p15) p6 p32) (or p39 p22 (not p0) (not p32) p3) (or (not p27) p4 p18 p39 (not p26)) (or (not p18) (not p28) (not p7) p6 (not p31)) (or (not p34) p34 p25 p12 p38) (or p35 p25 (not p1) p33 p20) (or (not p22) (not p3) (not p23) p16 p9) (or (not p31) p11 p25 p20 p17) (or p38 p23 p35 p36 p3) (or (not p4) p7 (not p19) (not p12) (not p14)) (or p23 (not p10) p31 p17 p18) (or (not p34) (not p13) p5 (not p20) (not p24)) (or p29 p4 (not p9) (not p15) p32) (or (not p15) (not p4) p32 p16 p22) (or (not p16) (not p33) p29 p20 p27) (or (not p26) p36 p7 p26 p35) (or (not p23) p10 (not p19) (not p28) (not p35)) (or (not p25) p24 p38 p24 p0) (or p4 p18 (not p9) p38 (not p30)) (or p16 p14 (not p27) (not p9) p31) (or p24 (not p29) (not p33) (not p25) p5) (or (not p34) p39 (not p38) (not p11) (not p37)) (or p24 p19 p25 (not p29) p23) (or p19 p23 (not p11) p27 p37) (or (not p19) p1 (not p15) p21 p4) (or p23 (not p33) (not p34) (not p34) (not p33)) (or (not p21) p2 (not p8) p14 p31) (or p20 (not p16) p19 p39 p5) (or p25 p26 p23 (not p25) p31) (or (not p26) (not p23) p1 p37 (not p16)) (or (not p14) p1 (not p27) (not p31) p13) (or p27 p38 (not p3) (not p14) (not p3)) (or p31 (not p32) (not p22) (not p30) p24) (or (not p1) p27 (not p17) p1 (not p4)) (or p29 p33 (not p17) (not p29) (not p21)) (or (not p36) p9 p8 p25 p20) (or p6 (not p39) p39 p1 p4) (or p8 (not p1) p0 (not p25) p28) (or p1 (not p4) p1 (not p30) p2) (or p10 (not p3) (not p39) (not p3) p22) (or (not p28) (not p6) (not p12) p10 (not p14)) (or p4 p23 p15 p8 p10) (or p19 (not p10) p22 p37 (not p6)) (or (not p22) p1 (not p7) (not p16) (not p25)) (or (not p32) (not p31) p3 (not p3) p1) (or p6 (not p39) (not p37) p32 p33) (or (not p24) (not p13) p6 p14 (not p10)) (or p34 (not p18) p26 p39 (not p37)) (or p26 p4 p29 p13 p4) (or (not p9) (not p37) p36 p27 p18) (or p32 (not p1) (not p18) p23 (not p16)) (or p0 (not p10) (not p15) p26 p16) (or p1 p2 (not p33) (not p6) p32) (or p1 (not p1) (not p11) (not p19) (not p34)) (or (not p11) p2 (not p0) (not p7) p28) (or p18 (not p10) p30 (not p15) (not p35)) (or p6 (not p30) p31 p13 p21) (or (not p33) (not p1) p32 (not p7) (not p19)) (or p28 p33 p19 p35 p34) (or p21 (not p14) (not p25) (not p11) (not p3)) (or (not p30) (not p29) p26 (not p7) (not p19)) (or p7 (not p11) (not p16) p3 (not p36)) (or p31 p2 (not p10) (not p27) p2) (or p39 (not p2) (not p10) (not p11) (not p39)) (or (not p21) p25 p5 (not p3) p13) (or (not p39) p38 (not p12) p28 (not p6)) (or (not p30) (not p4) (not p23) p4 p8) (or p10 (not p2) (not p31) (not p31) p2) (or (not p22) p6 p22 (not p0) (not p31)) (or (not p17) (not p20) (not p26) p7 p36) (or (not p8) p36 p7 p15 p31) (or (not p11) (not p6) (not p23) p28 p37) (or p7 (not p4) p15 (not p16) p0) (or (not p24) p22 p6 p12 (not p39)) (or p17 p36 (not p15) (not p38) p20) (or (not p27) p24 (not p14) (not p4) p10) (or p18 (not p30) p9 p13 p3) (or p17 p19 p12 (not p12) p4) (or (not p14) p4 p15 p38 (not p32)) (or (not p33) p18 (not p5) (not p20) (not p25)) (or (not p38) (not p0) (not p12) p17 p31) (or (not p12) (not p14) p4 p20 (not p27)) (or (not p16) (not p11) (not p8) p17 p22) (or (not p33) (not p7) (not p7) (not p3) p16) (or p4 (not p22) p33 p2 p7) (or (not p11) p3 (not p17) (not p21) (not p30)) (or p9 (not p23) (not p8) p34 p12) (or p21 p5 (not p0) (not p3) (not p4)) (or (not p21) (not p24) (not p0) (not p27) p11) (or (not p37) (not p29) p30 (not p17) (not p18)) (or p28 (not p7) (not p21) (not p4) (not p22)) (or (not p6) p20 p33 p38 p29) (or (not p16) (not p19) p30 (not p31) p5) (or p30 (not p22) p14 (not p19) (not p14)) (or (not p37) (not p34) (not p7) p28 (not p5)) (or (not p23) p38 p24 (not p31) p35) (or (not p2) p2 p23 (not p8) (not p17)) (or p21 (not p28) (not p15) p27 (not p21)) (or (not p9) p17 (not p7) (not p34) (not p38)) (or (not p30) p27 p39 (not p26) p35) (or (not p39) p3 p9 (not p5) p28) (or p18 p28 p35 p21 p10) (or p31 p8 p5 p23 p5) (or p15 (not p16) (not p19) p34 p37) (or p29 p12 (not p1) p33 (not p13)) (or (not p27) (not p30) p35 p5 (not p16)) (or p13 p26 p7 p9 p9) (or p14 (not p21) p14 p13 (not p13)) (or (not p7) (not p14) p14 p31 p9) (or (not p26) (not p28) p24 p8 (not p12)) (or p7 (not p26) (not p36) (not p2) (not p19)) (or p9 p32 p20 (not p38) p20) (or (not p23) p1 p20 (not p19) p8) (or (not p13) (not p0) (not p24) (not p17) p24) (or p1 (not p13) (not p39) p30 (not p31)) (or p39 p18 (not p22) (not p8) (not p34)) (or (not p37) (not p22) p11 (not p35) p36) (or (not p10) p33 (not p27) (not p30) (not p28)) (or (not p37) p29 (not p15) (not p12) (not p20)) (or p1 (not p37) (not p38) (not p34) p17) (or p28 (not p11) (not p22) p3 (not p2)) (or p6 p8 p16 (not p6) p28) (or (not p31) p8 p4 p19 (not p7)) (or (not p35) (not p30) p7 p12 (not p9)) (or (not p36) p15 p16 (not p23) (not p2)) (or p33 p21 p31 p17 (not p25)) (or p20 (not p31) p30 p22 (not p10)) (or (not p38) p37 (not p0) (not p37) p11) (or (not p34) (not p15) (not p16) p2 p33) (or p0 (not p1) p4 p36 p30) (or (not p34) p4 (not p39) (not p34) (not p35)) (or (not p13) p23 p21 (not p7) (not p12)) (or (not p11) (not p17) p29 p37 p30) (or (not p23) (not p23) (not p5) p39 p9) (or p27 (not p19) (not p0) p20 (not p33)) (or (not p18) p13 (not p17) p17 p32) (or (not p24) p28 p29 (not p10) p25) (or (not p9) p12 (not p1) p13 (not p26)) (or (not p18) p33 (not p16) (not p16) p9) (or (not p4) (not p36) (not p19) p7 p32) (or (not p36) (not p2) p7 p39 (not p7)) (or (not p39) (not p23) p6 p31 p3) (or (not p7) p17 (not p0) (not p28) (not p29)) (or (not p22) p24 (not p11) p0 p9) (or p0 p13 (not p9) p7 p2) (or (not p17) (not p14) p30 p21 (not p20)) (or p14 (not p19) p2 p20 p29) (or (not p31) (not p30) p33 (not p20) p18) (or p24 (not p13) p4 (not p36) p6) (or p12 (not p7) p37 p9 (not p2)) (or p18 p16 p1 (not p6) p6) (or p25 p37 (not p11) p17 (not p25)) (or p31 (not p27) p35 (not p24) p38) (or p1 p7 p26 (not p25) (not p4)) (or p17 p32 p19 (not p30) p24) (or p0 (not p17) p9 p33 p2) (or (not p20) (not p38) p3 (not p18) p5) (or (not p38) (not p19) p8 (not p33) p3) (or p8 p13 p18 (not p36) (not p13)) (or (not p33) p29 (not p30) p2 p21) (or p16 (not p4) p12 (not p28) (not p16)) (or p20 (not p0) p25 p34 p20) (or (not p14) p8 (not p2) p17 (not p13)) (or (not p4) p3 (not p20) (not p34) (not p2)) (or p0 p20 p38 p26 p9) (or p12 (not p8) (not p23) p27 p36) (or p22 p33 (not p28) (not p32) (not p13)) (or (not p23) p1 (not p20) (not p38) p19) (or (not p5) (not p15) (not p31) (not p38) p31) (or p31 (not p3) p6 p10 (not p16)) (or (not p21) p20 p32 p25 (not p31)) (or p0 p10 (not p24) p30 p22) (or (not p27) (not p30) p16 p24 (not p33)) (or p26 p7 (not p1) (not p6) (not p22)) (or p26 (not p15) (not p23) p34 (not p12)) (or (not p30) (not p22) p31 (not p7) (not p5)) (or (not p23) (not p38) (not p23) (not p26) p34) (or (not p3) p13 (not p0) (not p12) (not p3)) (or p12 (not p25) p31 p6 p4) (or p4 (not p0) (not p20) (not p5) (not p12)) (or (not p1) p32 p32 (not p24) (not p14)) (or (not p19) (not p9) p4 (not p35) (not p34)) (or (not p30) (not p4) (not p26) (not p23) p24) (or (not p34) (not p19) (not p11) p27 (not p38)) (or p9 (not p36) (not p13) (not p39) (not p2)) (or p9 (not p30) p8 p6 (not p23)) (or (not p23) (not p11) (not p22) p32 p38) (or (not p34) (not p33) (not p9) (not p9) (not p4)) (or p6 p20 (not p5) p3 p2) (or (not p39) p3 (not p29) (not p6) (not p14)) (or (not p6) p22 (not p24) p11 (not p10)) (or (not p4) p16 p14 p17 p27) (or (not p10) p5 (not p24) (not p35) p28) (or (not p11) p30 p24 p1 p4) (or (not p1) p2 p36 p17 p29) (or (not p30) (not p33) (not p33) (not p31) (not p8)) (or (not p17) (not p9) (not p0) p33 p26) (or (not p5) (not p27) (not p2) p11 (not p0)) (or (not p21) (not p30) (not p20) (not p33) (not p39)) (or p27 p16 p16 (not p36) p2) (or p0 (not p2) p27 (not p34) (not p4)) (or (not p1) p8 p28 p6 (not p38)) (or p9 (not p1) (not p9) p23 (not p39)) (or p38 p34 p26 (not p22) p27) (or (not p35) p0 p13 (not p29) p28) (or p32 p8 (not p14) p8 (not p9)) (or p20 p7 (not p39) (not p22) p10) (or p26 (not p30) p2 (not p6) p20) (or p14 (not p26) (not p27) (not p16) (not p36)) (or (not p0) (not p17) (not p35) (not p2) p34) (or p31 p10 p33 p8 p9) (or (not p10) p27 (not p26) (not p29) (not p37)) (or p21 p18 p27 (not p29) (not p18)) (or p21 (not p4) (not p20) (not p32) (not p2)) (or p28 p5 p20 (not p34) p36) (or p24 (not p26) p18 p4 (not p37)) (or (not p7) (not p34) (not p7) p3 p19) (or p2 (not p32) p6 (not p1) (not p32)) (or (not p28) (not p36) (not p17) p37 p28) (or p3 (not p32) (not p27) p0 p11) (or p6 p4 p24 (not p0) (not p5)) (or p1 (not p27) p9 (not p5) (not p24)) (or (not p8) (not p16) p36 (not p7) (not p37)) (or p18 (not p11) p36 (not p39) p17) (or (not p18) p30 p39 p3 (not p15)) (or p20 p15 (not p38) p37 p1) (or p38 p22 p1 (not p32) p1) (or (not p7) p0 (not p32) p2 p2) (or (not p27) (not p4) p38 (not p30) (not p19)) (or (not p22) (not p4) p28 p11 p2) (or (not p21) p23 (not p29) p16 p33) (or p1 p13 (not p9) (not p15) p8) (or (not p37) p15 (not p14) (not p18) (not p36)) (or (not p1) p7 p33 (not p15) p17) (or p35 (not p34) (not p25) (not p39) (not p6)) (or p10 (not p16) p5 (not p18) (not p4)) (or p21 (not p33) (not p26) p28 (not p3)) (or p29 p30 p24 p18 p8) (or p26 (not p22) p1 (not p12) p13) (or (not p25) (not p4) (not p34) (not p17) (not p18)) (or p10 (not p20) (not p25) (not p12) p19) (or p35 (not p22) (not p12) (not p11) p21) (or (not p10) p20 (not p36) (not p23) p0) (or (not p37) p27 (not p33) (not p1) (not p23)) (or p31 p16 (not p16) p38 (not p5)) (or p4 (not p19) (not p7) (not p11) p36) (or p8 p0 p6 p2 (not p16)) (or p30 (not p21) p28 p33 (not p18)) (or (not p21) (not p33) p21 (not p33) (not p21)) (or (not p33) p18 p8 p39 p36) (or (not p13) (not p8) (not p8) p2 p15) (or p25 p28 p37 p9 (not p12)) (or p38 p26 p25 (not p4) p35) (or p16 p23 (not p0) (not p17) (not p3)) (or p19 p22 p25 p35 p11) (or p32 (not p19) (not p4) (not p31) (not p29)) (or (not p28) (not p4) (not p29) p39 (not p22)) (or (not p24) (not p30) (not p23) (not p19) (not p32)) (or (not p2) p16 p13 p18 (not p5)) (or (not p11) p1 (not p20) p23 p36) (or p32 p8 (not p14) p30 (not p10)) (or p2 p23 (not p25) (not p0) (not p28)) (or (not p16) (not p31) (not p10) (not p28) p17) (or p22 p22 (not p19) p36 p26) (or (not p23) p19 p35 (not p1) (not p27)) (or p13 (not p27) p31 (not p32) (not p4)) (or p14 (not p20) (not p26) (not p4) (not p7)) (or (not p0) (not p17) (not p36) (not p16) (not p3)) (or p23 (not p0) p10 (not p16) (not p10)) (or (not p21) p29 (not p27) (not p24) (not p30)) (or p22 p22 p3 (not p18) p0) (or (not p21) (not p35) (not p2) (not p28) (not p34)) (or p7 (not p39) p11 (not p27) (not p21)) (or (not p16) p7 p29 (not p20) p22) (or p1 (not p1) (not p36) p6 p4) (or p25 (not p37) p26 (not p5) p0) (or (not p20) (not p29) p4 (not p23) (not p11)) (or (not p13) p10 p27 (not p9) p21) (or p14 p24 p34 p28 p22) (or p33 p18 p13 (not p13) p32) (or (not p7) (not p37) p28 p4 (not p4)) (or p17 p0 p25 p3 (not p30)) (or (not p14) p35 (not p31) (not p10) p10) (or (not p15) (not p9) p9 p2 p33) (or (not p28) (not p3) (not p28) (not p34) p7) (or p0 (not p25) (not p6) (not p31) (not p4)) (or p27 p20 (not p35) p37 (not p30)) (or p17 (not p10) (not p3) p37 p17) (or (not p22) p25 p23 p11 (not p5)) (or p21 (not p32) (not p15) (not p37) p28) (or p24 (not p27) p4 (not p9) (not p21)) (or p30 p10 (not p10) p25 p10) (or (not p6) (not p1) p26 p11 (not p3)) (or p7 p9 p11 (not p22) (not p35)) (or p19 (not p10) (not p23) p32 p1) (or p6 p5 (not p11) (not p39) p19) (or p35 (not p26) (not p30) (not p35) p21) (or (not p9) p1 (not p35) (not p29) (not p4)) (or (not p7) p19 p18 (not p26) (not p0)) (or (not p29) p24 p28 p26 (not p30)) (or p20 p15 p26 (not p5) p38) (or (not p12) (not p26) (not p36) p22 (not p25)) (or p29 (not p13) (not p9) (not p10) (not p38)) (or (not p11) p17 (not p38) p21 (not p33)) (or p32 (not p9) p7 p8 (not p20)) (or p12 (not p0) (not p3) p7 (not p27)) (or p25 (not p29) p13 p17 p9) (or (not p2) (not p4) (not p36) (not p6) (not p19)) (or (not p14) (not p22) p35 p4 p0) (or p28 (not p29) (not p36) (not p22) (not p33)) (or p10 p10 (not p20) (not p12) (not p12)) (or (not p37) p11 p26 (not p5) p4) (or (not p33) p10 (not p39) p24 p4) (or p39 p29 (not p31) (not p8) p18) (or (not p18) p25 p18 p33 p18) (or p9 (not p18) (not p11) p13 (not p16)) (or (not p35) p19 (not p36) p24 (not p29)) (or p29 p14 (not p0) p35 p24) (or (not p21) p23 (not p31) (not p7) p3) (or (not p27) p37 (not p20) p22 p9) (or p2 p2 p0 p36 (not p31)) (or (not p39) p8 p34 p33 (not p9)) (or p21 (not p5) p1 p11 p3) (or (not p21) (not p31) (not p6) (not p14) p33) (or p9 (not p20) p15 p27 (not p16)) (or (not p23) p5 p1 p33 p35) (or (not p27) (not p5) p33 p7 (not p7)) (or p5 (not p32) (not p35) (not p34) p32) (or p21 p8 (not p12) (not p21) p13) (or (not p24) (not p29) (not p9) p11 (not p36)) (or (not p25) p2 (not p11) p29 (not p18)) (or (not p27) p10 p16 p6 (not p16)) (or (not p0) p10 (not p14) (not p38) p34) (or (not p6) p39 p6 (not p15) p36) (or p20 p22 p30 (not p17) (not p5)) (or (not p39) p8 (not p35) p21 p34) (or (not p26) (not p5) (not p8) p32 (not p5)) (or (not p18) p31 (not p33) p18 (not p8)) (or (not p30) p14 p3 p5 p20) (or p37 p13 p25 p6 p36) (or (not p19) p38 p1 p33 p33) (or p5 (not p8) p29 p38 p20) (or (not p32) p33 (not p17) p30 (not p13)) (or p5 (not p30) (not p14) p36 p9) (or (not p30) (not p12) (not p2) (not p11) p0) (or p6 (not p6) (not p28) p12 p5) (or p37 p21 (not p38) p11 p2) (or (not p19) (not p19) (not p33) p16 (not p36)) (or p39 p13 p15 p1 (not p9)) (or p34 p11 p2 p8 p1) (or (not p19) p26 (not p24) (not p30) (not p38)) (or (not p31) (not p32) p11 (not p21) p18) (or p29 p35 p20 (not p6) p34) (or p8 p36 p20 (not p26) (not p4)) (or (not p36) p0 (not p26) p27 p30) (or p10 p18 p27 (not p24) (not p27)) (or p27 p29 (not p16) p32 p15) (or (not p39) (not p14) (not p28) (not p28) p32) (or p10 (not p11) p28 (not p22) (not p22)) (or p22 p9 (not p33) (not p4) p21) (or (not p1) p17 p8 p11 p24) (or (not p6) (not p18) p37 (not p20) (not p0)) (or (not p17) p39 p19 p2 (not p11)) (or (not p32) p10 (not p13) p6 p5) (or p31 p6 p2 p1 p26) (or p22 p26 (not p14) (not p23) p26) (or p29 p38 (not p15) p19 (not p24)) (or (not p4) p38 p11 (not p34) (not p2)) (or (not p9) (not p15) p2 (not p38) p36) (or p30 p38 (not p29) (not p24) p8) (or p35 p14 (not p18) p13 p17) (or (not p12) (not p19) p5 p34 (not p39)) (or (not p22) (not p10) (not p18) p2 p9) (or p35 p7 (not p2) (not p12) p26) (or p28 (not p24) (not p5) p21 (not p20)) (or (not p22) p5 (not p21) p38 (not p4)) (or p19 p0 p10 (not p23) p13) (or p35 (not p15) p14 p10 p34) (or (not p5) p28 (not p29) p21 (not p39)) (or p9 (not p9) p37 (not p37) p1) (or (not p21) p38 (not p23) (not p1) p8) (or p5 (not p35) p23 p27 (not p20)) (or (not p18) p1 (not p35) p38 p4) (or (not p36) (not p6) p4 (not p31) p0) (or (not p11) p17 p31 (not p4) (not p24)) (or p23 (not p13) (not p9) p4 (not p32)) (or (not p34) (not p32) (not p3) p6 p24) (or (not p27) p2 (not p30) p21 (not p22)) (or (not p26) p7 p19 (not p16) (not p20)) (or (not p20) (not p2) p18 p4 p14) (or (not p22) (not p24) (not p19) p17 p25) (or (not p30) p5 p8 (not p22) p38) (or p10 p9 p38 p24 p26) (or p0 p21 p19 p38 (not p21)) (or p26 (not p12) p29 p35 (not p31)) (or (not p23) (not p28) p15 p31 (not p17)) (or (not p22) (not p38) (not p18) (not p25) (not p26)) (or p18 p38 p7 p36 (not p16)) (or p29 p16 (not p39) (not p12) p11) (or (not p15) (not p5) p36 p31 (not p37)) (or (not p9) (not p19) (not p26) (not p39) p36) (or p5 p2 (not p2) p29 (not p39)) (or p28 p27 (not p30) (not p5) p35) (or p21 p34 p14 (not p37) p8) (or (not p12) p14 p25 (not p35) (not p28)) (or p4 (not p7) (not p32) (not p28) p7) (or (not p26) (not p30) (not p35) (not p30) p31) (or p12 p13 p35 p8 p9) (or (not p28) (not p32) (not p1) (not p24) p31) (or (not p32) (not p3) (not p7) p15 (not p6)) (or (not p27) (not p26) (not p12) p2 p20) (or (not p24) (not p31) p19 (not p33) p35) (or p24 p33 (not p17) p12 (not p37)) (or p33 (not p2) (not p27) (not p0) p28) (or p7 p32 p36 (not p26) p31) (or (not p4) (not p21) (not p3) (not p39) (not p31)) (or (not p16) (not p22) (not p22) p2 (not p22)) (or p29 p26 (not p12) p11 (not p17)) (or p35 p35 p30 p7 p13) (or (not p11) (not p24) p11 (not p23) (not p21)) (or (not p25) p39 (not p18) (not p5) p1) (or p16 (not p20) p39 (not p36) p0) (or p17 p8 p3 (not p35) (not p38)) (or (not p0) (not p32) p28 (not p14) p6) (or p37 (not p29) (not p26) (not p32) p23) (or p25 p1 (not p38) p4 p15) (or (not p17) (not p14) (not p28) (not p31) p1) (or p28 (not p13) p17 (not p22) p32) (or p0 (not p7) p9 p18 (not p23)) (or p12 (not p23) (not p5) p32 (not p27)) (or p33 p0 (not p11) p39 p26) (or (not p27) p26 p32 (not p25) p22) (or (not p30) (not p21) p10 (not p15) p18) (or p34 (not p38) (not p11) (not p37) (not p34)) (or (not p23) p39 p11 p25 (not p31)) (or (not p11) (not p15) (not p38) p21 p20) (or p16 (not p13) p35 (not p24) (not p7)) (or (not p19) (not p19) p18 (not p20) (not p14)) (or (not p6) (not p28) p31 p21 (not p9)) (or p10 (not p26) p4 (not p13) p35) (or (not p36) p9 p5 (not p11) p33) (or p4 p39 (not p36) (not p37) (not p20)) (or p29 p35 (not p39) p22 p6) (or p26 p34 (not p17) (not p0) p31) (or (not p20) p3 (not p0) p14 p12) (or (not p1) p36 (not p34) p3 (not p7)) (or (not p20) (not p12) (not p6) p24 (not p28)) (or p20 (not p8) (not p28) (not p9) (not p2)) (or p16 (not p0) (not p36) (not p37) p32) (or p32 (not p29) (not p11) p3 (not p36)) (or p34 (not p27) (not p16) (not p2) p26) (or (not p6) p10 p29 (not p19) p28) (or p13 (not p16) p2 (not p21) (not p28)) (or (not p0) p17 (not p38) p34 p20) (or (not p1) p0 (not p24) (not p34) (not p32)) (or (not p34) p6 (not p9) p16 (not p17)) (or (not p38) p31 (not p9) p9 p19) (or (not p5) p12 p28 (not p10) p24) (or (not p26) p8 (not p30) p7 p6) (or p3 p33 p17 p29 (not p23)) (or p34 p5 (not p4) p24 (not p12)) (or (not p2) p33 p37 p32 (not p13)) (or (not p11) (not p18) (not p30) (not p1) (not p0)) (or (not p38) (not p9) p21 p35 (not p10)) (or (not p11) p24 (not p25) p32 p35) (or p18 p23 (not p38) (not p21) p36) (or p13 (not p30) (not p13) p38 (not p24)) (or (not p10) p6 p33 (not p13) p37) (or p38 p19 (not p12) (not p37) (not p13)) (or (not p27) p30 p37 p6 (not p5)) (or (not p28) p0 p14 p30 p29) (or p21 (not p8) (not p28) (not p9) p31) (or p25 p7 p26 (not p3) p9) (or p8 (not p7) (not p1) p34 p0) (or p7 (not p35) p18 p6 (not p1)) (or (not p37) (not p29) p9 p6 (not p23)) (or p38 (not p23) p34 (not p27) (not p34)) (or (not p2) (not p13) (not p1) p39 p32) (or (not p23) p0 p6 p10 (not p32)) (or p24 (not p26) p28 (not p18) p22) (or p22 (not p33) p29 (not p17) (not p25)) (or p36 (not p11) p32 (not p33) (not p13)) (or (not p11) p37 p21 p35 (not p34)) (or p8 (not p28) (not p9) (not p13) p39) (or p0 p23 p15 (not p18) p16) (or (not p0) p19 p27 p31 p12) (or p25 (not p11) (not p12) p24 (not p11)) (or p13 p19 (not p12) p30 (not p5)) (or (not p1) (not p12) (not p38) (not p36) p1) (or p9 p16 (not p15) p20 p6) (or (not p32) p16 (not p6) (not p1) p25) (or (not p16) (not p18) p24 p0 p32) (or (not p6) (not p19) p15 p31 (not p37)) (or (not p6) (not p0) (not p10) p39 p19) (or (not p1) (not p3) (not p37) (not p22) p27) (or (not p10) (not p38) (not p6) p34 (not p5)) (or p13 (not p10) (not p8) p17 (not p32)) (or p16 (not p9) (not p21) p7 (not p10)) (or p5 p6 p0 p15 (not p35)) (or (not p39) p33 (not p5) p24 p9) (or p34 (not p13) p32 (not p30) (not p2)) (or (not p18) (not p14) p20 p38 (not p22)) (or (not p32) p37 p20 (not p29) p1) (or (not p9) (not p27) (not p8) (not p25) (not p33)) (or (not p21) (not p39) p10 (not p13) (not p1)) (or p19 p30 p26 p16 p7) (or (not p20) p29 p2 p37 (not p8)) (or (not p28) p20 (not p39) p7 (not p17)) (or (not p17) (not p2) (not p25) p22 p34) (or p17 (not p10) p36 (not p24) (not p18)) (or p2 p16 (not p7) (not p5) p21) (or p3 p33 p5 (not p21) (not p31)) (or p39 p38 (not p6) p9 p30) (or (not p3) p0 p17 (not p15) p31) (or p27 (not p37) (not p33) (not p38) (not p2)) (or p13 (not p17) p35 p25 p34) (or (not p8) p7 p36 p2 (not p1)) (or p12 p24 (not p19) p26 (not p22)) (or p36 (not p37) p14 (not p34) (not p26)) (or p16 (not p3) p15 (not p7) (not p28)) (or p26 (not p33) p13 (not p31) (not p22)) (or p16 (not p25) p13 p22 p37) (or p39 p24 (not p8) p24 (not p39)) (or p16 p30 (not p13) p37 (not p33)) (or p18 (not p13) p5 (not p27) p38) (or p29 p9 p9 (not p18) (not p9)) (or p37 p6 p12 (not p34) p6) (or (not p11) (not p29) p8 p1 p18) (or (not p8) (not p6) p13 p28 (not p16)) (or (not p9) (not p23) p22 p1 p31) (or (not p24) p33 (not p16) (not p8) p19) (or p36 p22 p28 p28 (not p11)) (or p25 (not p15) (not p10) p23 p19) (or (not p10) p31 (not p27) (not p2) (not p15)) (or (not p38) (not p8) p4 p37 (not p24)) (or (not p25) (not p22) (not p26) p17 (not p13)) (or p5 p27 (not p35) p5 (not p30)) (or (not p38) (not p1) p3 p5 p20) (or (not p17) p38 (not p9) (not p15) p15) (or (not p3) p20 p24 p7 p24) (or (not p17) (not p15) (not p18) (not p38) p16) (or (not p24) (not p5) (not p22) p4 p3) (or p27 p9 (not p21) p20 p17) (or p10 p31 p5 (not p39) p32) (or (not p31) p36 p18 (not p26) p19) (or (not p4) p7 p16 (not p27) (not p30)) (or p30 (not p15) (not p24) p8 p30) (or p34 (not p5) p22 p19 p2) (or p17 (not p21) p31 (not p23) (not p12)) (or (not p7) (not p34) (not p17) p5 (not p28)) (or p24 (not p19) (not p32) p28 (not p3)) (or p13 (not p17) p16 (not p20) p35) (or p4 p24 p3 (not p38) p14) (or (not p31) (not p36) (not p0) (not p37) p8) (or (not p4) p21 (not p7) (not p8) p27) (or p14 p9 p10 (not p15) (not p21)) (or p17 p25 (not p12) p24 (not p20)) (or p19 p6 p37 p29 (not p27)) (or p37 p39 p5 p9 (not p37)) (or p6 p26 p37 (not p12) p22) (or (not p16) p24 p19 (not p37) (not p29)) (or p0 (not p14) p3 (not p38) p15) (or p5 (not p4) p34 (not p5) p21) (or (not p15) p1 (not p34) (not p3) p7) (or (not p30) p4 p31 (not p20) (not p18)) (or (not p32) p3 p23 p12 (not p18)) (or p19 p27 (not p19) (not p3) p14) (or p34 p23 p0 (not p36) p38) (or (not p21) (not p17) (not p24) p30 p4) (or (not p39) p35 (not p8) (not p20) (not p28)) (or (not p1) p10 (not p36) p25 (not p11)) (or p31 (not p0) (not p32) (not p26) (not p0)) (or p2 (not p35) p33 p20 p33) (or p4 p12 (not p3) p13 p13) (or (not p5) (not p6) p21 p13 (not p22)) (or p32 (not p1) p23 (not p35) (not p30)) (or p17 (not p37) p29 p23 (not p20)) (or p24 p29 p2 (not p16) (not p6)) (or p31 (not p23) p6 (not p28) (not p33)) (or (not p2) (not p37) p31 (not p39) p25) (or (not p37) p36 p10 (not p7) p20) (or p39 p15 (not p25) p29 (not p19)) (or (not p8) p15 p6 (not p1) p1) (or (not p25) p11 (not p34) (not p27) (not p21)) (or p29 p22 (not p34) (not p36) (not p21)) (or (not p1) (not p37) p5 (not p27) (not p27)) (or (not p27) (not p3) (not p25) p22 (not p34)) (or p29 (not p22) (not p20) (not p34) p32) (or p0 p8 (not p6) (not p10) p10) (or (not p12) (not p21) p3 p11 p37) (or p3 (not p35) (not p15) p38 p20) (or p23 (not p1) (not p2) (not p16) (not p21)) (or (not p24) (not p28) p6 (not p17) p37) (or p17 p10 p25 (not p18) p39) (or p37 p27 p0 p11 p4) (or (not p2) p29 (not p4) p2 p9) (or (not p29) (not p24) p19 p9 (not p5)) (or p0 p23 (not p27) p8 p28) (or (not p33) p20 (not p4) p11 (not p15)) (or (not p32) p1 p37 (not p38) (not p32)) (or (not p9) (not p27) (not p22) p20 p22) (or p1 (not p10) p21 p33 p26) (or (not p17) p5 (not p32) p37 (not p24)) (or p10 (not p37) (not p11) (not p27) p29) (or p17 p25 p1 (not p5) (not p31)) (or p33 p2 p8 (not p23) (not p5)) (or (not p19) p3 (not p19) (not p18) (not p10)) (or p10 (not p3) p39 p29 (not p20)) (or p19 (not p15) (not p3) (not p21) (not p5)) (or p13 p5 p35 (not p34) (not p12)) (or (not p26) (not p24) (not p8) p23 p8) (or p0 p28 p26 (not p1) (not p37)) (or (not p34) p33 p34 p21 p37) (or p15 p26 (not p32) (not p29) (not p7)) (or (not p15) p15 p21 p30 (not p16)) (or p7 (not p35) p33 (not p16) (not p23)) (or p30 (not p8) (not p9) (not p30) (not p22)) (or (not p19) p0 p1 (not p6) (not p19)) (or p23 (not p38) p9 (not p5) (not p23)) (or (not p27) p17 (not p14) p17 p30) (or (not p34) (not p32) (not p0) (not p37) (not p5)) (or p20 (not p1) (not p13) p17 (not p3)) (or p5 (not p20) (not p20) p22 p23) (or p17 p5 p4 (not p24) (not p2)) (or (not p38) p23 (not p10) (not p4) (not p34)) (or (not p9) p30 p36 p9 (not p2)) (or (not p15) (not p2) p7 (not p29) p29) (or p11 (not p22) p14 (not p6) (not p6)) (or p34 p33 (not p18) (not p11) (not p24)) (or (not p14) (not p32) (not p4) p3 p25) (or (not p21) p6 (not p12) p17 p23) (or p30 p7 p13 p12 p1) (or (not p12) (not p30) (not p32) (not p4) p17) (or p17 p7 p5 (not p25) p26) (or p37 (not p34) (not p15) p1 (not p25)) (or p2 p22 p12 (not p0) p11) (or p25 p22 (not p16) p13 p8) (or (not p11) p19 (not p32) (not p24) p8) (or (not p35) p36 p18 (not p16) p23) (or p4 (not p1) (not p25) p26 p7) (or p7 (not p29) (not p9) (not p31) (not p1)) (or (not p39) (not p36) p15 p21 p36) (or (not p4) (not p31) (not p0) (not p27) p14) (or (not p26) p6 p2 (not p36) p17) (or p3 p16 p18 p20 (not p3)) (or (not p26) (not p0) p1 (not p10) p4) (or (not p19) p7 p33 p7 p4) (or p12 (not p15) (not p9) (not p21) p13) (or (not p6) (not p24) (not p1) p8 p38) (or p24 (not p8) (not p38) p33 (not p19)) (or p4 (not p33) (not p11) (not p1) (not p7)) (or (not p28) p7 (not p5) (not p2) p20) (or p27 (not p21) (not p22) (not p5) (not p15)) (or p15 (not p38) p26 p35 p16) (or (not p22) (not p0) (not p16) (not p29) p34) (or p26 (not p28) p14 p8 (not p26)) (or (not p28) p27 (not p20) (not p33) (not p0)) (or (not p3) p15 p32 (not p15) (not p13)) (or p21 (not p36) (not p11) p31 (not p27)) (or p37 p25 (not p20) (not p33) p16) (or p18 (not p8) p8 p36 p37) (or p6 p25 p21 p33 p37) (or p11 p38 p38 p8 (not p34)) (or p1 p22 p4 p25 (not p35)) (or p27 (not p7) p26 (not p10) (not p10)) (or (not p2) (not p25) (not p30) p6 (not p17)) (or (not p31) (not p39) (not p30) p32 p35) (or p25 (not p23) p8 (not p27) p7) (or (not p22) (not p22) p32 p24 (not p32)) (or p5 p3 p15 p26 p0) (or p7 (not p38) p15 (not p19) p3))
)
(check-sat)
(get-model)
